proyfinal/src/viki/013/experimentInOfficeAgust.take6.output/044f7323-992b-4172-bf18-535802facd43.als.dat
{'cnf.clauses': '118081',
 'cnf.totvars': '69608',
 'conflict literals': '20',
 'conflicts': '12',
 'decisions': '6320',
 'memused.mb': '16.79',
 'outcome': 'UNSAT',
 'propagations': '29228',
 'restarts': '1',
 'solver.msecs': 33,
 'task.msecs': 79}
