proyfinal/src/viki/013/experimentInOfficeAgust.take6.output/044f7323-992b-4172-bf18-535802facd43.als.out
Reading from standard input... Use '--help' for help.
============================[ Problem Statistics ]=============================
|                                                                             |
|  Number of variables:         69608                                         |
|  Number of clauses:          118081                                         |
|  Parse time:                   0.03 s                                       |
|                                                                             |
============================[ Search Statistics ]==============================
| Conflicts |          ORIGINAL         |          LEARNT          | Progress |
|           |    Vars  Clauses Literals |    Limit  Clauses Lit/Cl |          |
===============================================================================
===============================================================================
restarts              : 1
conflicts             : 12             (357 /sec)
decisions             : 6320           (0.00 % random) (188230 /sec)
propagations          : 29228          (870503 /sec)
conflict literals     : 20             (0.00 % deleted)
Memory used           : 16.79 MB
CPU time              : 0.033576 s

UNSATISFIABLE
